100 6 100
23 60 51 56 88 93 18 33 52 25 15 91 36 27 95 84 2 98 4 43 21 25 91 64 39 17 41 96 72 3 46 95 15 97 4 55 43 74 88 95 56 39 36 83 86 72 37 37 77 80 58 54 24 22 45 93 15 93 65 70 39 13 86 89 17 41 32 43 82 79 43 38 70 32 73 57 4 11 46 33 43 56 87 67 78 85 61 45 78 78 16 70 91 2 59 60 95 43 4 77 
